
Gurobi 9.1.2 (linux64) logging started Wed Nov 24 10:26:58 2021

Changed value of parameter LogFile to lemke_square_v-(0, 5).log-s20-l10.log
   Prev:   Default: 
Changed value of parameter Threads to 32
   Prev: 0  Min: 0  Max: 1024  Default: 0
Changed value of parameter TimeLimit to 3600.0
   Prev: inf  Min: 0.0  Max: inf  Default: inf
Changed value of parameter MIPGap to 0.4
   Prev: 0.0001  Min: 0.0  Max: inf  Default: 0.0001
Warning: variable name "X[(7, 4),(7, 3)]" has a space
Warning: constraint name "flow-constr-t0-v(3, 0)" has a space
Warning: to let Gurobi read it back, use rlp format
Gurobi Optimizer version 9.1.2 build v9.1.2rc0 (linux64)
Thread count: 16 physical cores, 32 logical processors, using up to 32 threads
Optimize a model with 6053 rows, 5440 columns and 20770 nonzeros
Model fingerprint: 0x5d151205
Variable types: 0 continuous, 5440 integer (4800 binary)
Coefficient statistics:
  Matrix range     [1e+00, 1e+03]
  Objective range  [1e-01, 1e-01]
  Bounds range     [1e+00, 5e+02]
  RHS range        [1e+00, 1e+03]
Presolve removed 347 rows and 360 columns
Presolve time: 0.05s
Presolved: 5706 rows, 5080 columns, 19030 nonzeros
Variable types: 0 continuous, 5080 integer (4440 binary)

Root relaxation: objective 6.400000e+01, 129 iterations, 0.00 seconds

    Nodes    |    Current Node    |     Objective Bounds      |     Work
 Expl Unexpl |  Obj  Depth IntInf | Incumbent    BestBd   Gap | It/Node Time

     0     0   64.00000    0   44          -   64.00000      -     -    0s
H    0     0                     220.0000000   64.00000  70.9%     -    0s
H    0     0                     218.6000000   64.00000  70.7%     -    0s
H    0     0                     211.3000000   64.00000  69.7%     -    0s
H    0     0                     128.6000000   64.00000  50.2%     -    0s
     0     0   64.00000    0   99  128.60000   64.00000  50.2%     -    0s
H    0     0                     107.2000000   64.00000  40.3%     -    0s
     0     0   64.00000    0   99  107.20000   64.00000  40.3%     -    0s
H    0     0                     100.9000000   64.00000  36.6%     -    0s
     0     0   64.00000    0   50  100.90000   64.00000  36.6%     -    0s

Cutting planes:
  Gomory: 24
  Cover: 20
  Implied bound: 17
  Clique: 12
  MIR: 64
  Flow cover: 50
  RLT: 5
  Relax-and-lift: 35

Explored 1 nodes (1118 simplex iterations) in 0.76 seconds
Thread count was 32 (of 32 available processors)

Solution count 6: 100.9 107.2 128.6 ... 220

Optimal solution found (tolerance 4.00e-01)
Best objective 1.009000000000e+02, best bound 6.400000000000e+01, gap 36.5709%

Gurobi 9.1.2 (linux64) logging started Wed Nov 24 10:32:19 2021

Changed value of parameter LogFile to lemke_square_v-(0, 5).log-s20-l10.log
   Prev:   Default: 
Changed value of parameter Threads to 32
   Prev: 0  Min: 0  Max: 1024  Default: 0
Changed value of parameter TimeLimit to 3600.0
   Prev: inf  Min: 0.0  Max: inf  Default: inf
Changed value of parameter MIPGap to 0.4
   Prev: 0.0001  Min: 0.0  Max: inf  Default: 0.0001
Warning: variable name "X[(7, 4),(7, 3)]" has a space
Warning: constraint name "flow-constr-t0-v(3, 0)" has a space
Warning: to let Gurobi read it back, use rlp format
Gurobi Optimizer version 9.1.2 build v9.1.2rc0 (linux64)
Thread count: 16 physical cores, 32 logical processors, using up to 32 threads
Optimize a model with 6053 rows, 5440 columns and 20770 nonzeros
Model fingerprint: 0x5d151205
Variable types: 0 continuous, 5440 integer (4800 binary)
Coefficient statistics:
  Matrix range     [1e+00, 1e+03]
  Objective range  [1e-01, 1e-01]
  Bounds range     [1e+00, 5e+02]
  RHS range        [1e+00, 1e+03]
Presolve removed 347 rows and 360 columns
Presolve time: 0.04s
Presolved: 5706 rows, 5080 columns, 19030 nonzeros
Variable types: 0 continuous, 5080 integer (4440 binary)

Root relaxation: objective 6.400000e+01, 129 iterations, 0.00 seconds

    Nodes    |    Current Node    |     Objective Bounds      |     Work
 Expl Unexpl |  Obj  Depth IntInf | Incumbent    BestBd   Gap | It/Node Time

     0     0   64.00000    0   44          -   64.00000      -     -    0s
H    0     0                     220.0000000   64.00000  70.9%     -    0s
H    0     0                     218.6000000   64.00000  70.7%     -    0s
H    0     0                     211.3000000   64.00000  69.7%     -    0s
H    0     0                     128.6000000   64.00000  50.2%     -    0s
     0     0   64.00000    0   99  128.60000   64.00000  50.2%     -    0s
H    0     0                     107.2000000   64.00000  40.3%     -    0s
     0     0   64.00000    0   99  107.20000   64.00000  40.3%     -    0s
H    0     0                     100.9000000   64.00000  36.6%     -    0s
     0     0   64.00000    0   50  100.90000   64.00000  36.6%     -    0s

Cutting planes:
  Gomory: 24
  Cover: 20
  Implied bound: 17
  Clique: 12
  MIR: 64
  Flow cover: 50
  RLT: 5
  Relax-and-lift: 35

Explored 1 nodes (1118 simplex iterations) in 0.74 seconds
Thread count was 32 (of 32 available processors)

Solution count 6: 100.9 107.2 128.6 ... 220

Optimal solution found (tolerance 4.00e-01)
Best objective 1.009000000000e+02, best bound 6.400000000000e+01, gap 36.5709%

Gurobi 9.1.2 (linux64) logging started Wed Nov 24 11:41:12 2021

Changed value of parameter LogFile to lemke_square_v-(0, 5).log-s20-l10.log
   Prev:   Default: 
Changed value of parameter Threads to 32
   Prev: 0  Min: 0  Max: 1024  Default: 0
Changed value of parameter TimeLimit to 3600.0
   Prev: inf  Min: 0.0  Max: inf  Default: inf
Changed value of parameter MIPGap to 0.3
   Prev: 0.0001  Min: 0.0  Max: inf  Default: 0.0001
Warning: variable name "X[(7, 4),(7, 3)]" has a space
Warning: constraint name "flow-constr-t0-v(3, 0)" has a space
Warning: to let Gurobi read it back, use rlp format
Gurobi Optimizer version 9.1.2 build v9.1.2rc0 (linux64)
Thread count: 16 physical cores, 32 logical processors, using up to 32 threads
Optimize a model with 6053 rows, 5440 columns and 20770 nonzeros
Model fingerprint: 0x5d151205
Variable types: 0 continuous, 5440 integer (4800 binary)
Coefficient statistics:
  Matrix range     [1e+00, 1e+03]
  Objective range  [1e-01, 1e-01]
  Bounds range     [1e+00, 5e+02]
  RHS range        [1e+00, 1e+03]
Presolve removed 347 rows and 360 columns
Presolve time: 0.04s
Presolved: 5706 rows, 5080 columns, 19030 nonzeros
Variable types: 0 continuous, 5080 integer (4440 binary)

Root relaxation: objective 6.400000e+01, 129 iterations, 0.00 seconds

    Nodes    |    Current Node    |     Objective Bounds      |     Work
 Expl Unexpl |  Obj  Depth IntInf | Incumbent    BestBd   Gap | It/Node Time

     0     0   64.00000    0   44          -   64.00000      -     -    0s
H    0     0                     220.0000000   64.00000  70.9%     -    0s
H    0     0                     218.6000000   64.00000  70.7%     -    0s
H    0     0                     211.3000000   64.00000  69.7%     -    0s
H    0     0                     128.6000000   64.00000  50.2%     -    0s
     0     0   64.00000    0   99  128.60000   64.00000  50.2%     -    0s
H    0     0                     107.2000000   64.00000  40.3%     -    0s
     0     0   64.00000    0   99  107.20000   64.00000  40.3%     -    0s
H    0     0                     100.9000000   64.00000  36.6%     -    0s
H    0     0                      97.8000000   64.00000  34.6%     -    0s
     0     0   64.00000    0   50   97.80000   64.00000  34.6%     -    0s
H    0     0                      97.6000000   64.00000  34.4%     -    0s
     0     0   64.00000    0   50   97.60000   64.00000  34.4%     -    0s
     0     0   64.00000    0   73   97.60000   64.00000  34.4%     -    0s
     0     0   64.00000    0   62   97.60000   64.00000  34.4%     -    0s
     0     2   64.00000    0   46   97.60000   64.00000  34.4%     -    1s
H   31    64                      97.5000000   64.00000  34.4%  54.6    2s
H   32    64                      91.5000000   64.00000  30.1%  55.0    2s
H   33    64                      91.1000000   64.00000  29.7%  55.2    2s
H   42    64                      90.3000000   64.00000  29.1%  57.1    2s

Cutting planes:
  Gomory: 2
  Cover: 84
  Implied bound: 116
  Clique: 13
  MIR: 19
  Flow cover: 8
  RLT: 6
  Relax-and-lift: 30

Explored 63 nodes (6147 simplex iterations) in 2.27 seconds
Thread count was 32 (of 32 available processors)

Solution count 10: 90.3 91.1 91.5 ... 211.3

Optimal solution found (tolerance 3.00e-01)
Best objective 9.030000000000e+01, best bound 6.400000000000e+01, gap 29.1251%
